p cnf 195 843
82 128 0
105 110 0
72 107 161 0
80 93 97 103 0
76 86 139 0
58 114 117 0
84 111 135 0
99 133 0
91 141 145 146 0
148 150 0
123 176 178 0
71 127 132 180 0
65 67 68 69 0
74 90 143 183 0
62 149 188 0
59 61 121 0
78 95 101 118 190 0
56 94 112 125 0
55 134 137 153 192 194 0
155 156 157 0
122 159 160 0
162 163 0
79 98 104 0
144 166 0
77 87 140 0
60 167 169 0
57 126 0
85 129 136 154 0
92 170 0
106 147 172 173 174 0
151 175 0
73 115 177 0
81 108 165 179 0
66 75 181 0
64 182 184 0
63 89 142 186 0
187 189 0
96 102 119 191 0
113 130 138 152 193 195 0
-82 -110 0
-54 -82 0
-72 -82 0
-82 -93 0
-54 -110 0
-72 -110 0
-93 -110 0
-54 -72 0
-54 -93 0
-72 -93 0
-133 -141 0
-133 -148 0
-53 -133 0
-127 -133 0
-141 -148 0
-53 -141 0
-127 -141 0
-53 -148 0
-127 -148 0
-53 -127 0
-52 -69 0
-61 -69 0
-69 -94 0
-55 -69 0
-52 -61 0
-52 -94 0
-52 -55 0
-61 -94 0
-55 -61 0
-55 -94 0
-83 -172 0
-83 -151 0
-83 -179 0
-51 -83 0
-151 -172 0
-172 -179 0
-51 -172 0
-151 -179 0
-51 -151 0
-51 -179 0
-142 -181 0
-49 -181 0
-100 -181 0
-113 -181 0
-49 -142 0
-100 -142 0
-113 -142 0
-49 -100 0
-49 -113 0
-100 -113 0
-82 -133 0
-69 -82 0
-82 -83 0
-82 -181 0
-69 -133 0
-83 -133 0
-133 -181 0
-69 -83 0
-69 -181 0
-83 -181 0
-110 -141 0
-52 -110 0
-110 -172 0
-110 -142 0
-52 -141 0
-141 -172 0
-141 -142 0
-52 -172 0
-52 -142 0
-142 -172 0
-54 -148 0
-54 -61 0
-54 -151 0
-49 -54 0
-61 -148 0
-148 -151 0
-49 -148 0
-61 -151 0
-49 -61 0
-49 -151 0
-53 -72 0
-72 -94 0
-72 -179 0
-72 -100 0
-53 -94 0
-53 -179 0
-53 -100 0
-94 -179 0
-94 -100 0
-100 -179 0
-93 -127 0
-55 -93 0
-51 -93 0
-93 -113 0
-55 -127 0
-51 -127 0
-113 -127 0
-51 -55 0
-55 -113 0
-51 -113 0
-48 -91 0
-47 -48 0
-48 -123 0
-47 -91 0
-91 -123 0
-47 -123 0
-46 -74 0
-62 -74 0
-74 -118 0
-46 -62 0
-46 -118 0
-62 -118 0
-45 -109 0
-45 -155 0
-45 -122 0
-109 -155 0
-109 -122 0
-122 -155 0
-77 -166 0
-44 -166 0
-43 -166 0
-44 -77 0
-43 -77 0
-43 -44 0
-48 -74 0
-45 -48 0
-48 -166 0
-45 -74 0
-74 -166 0
-45 -166 0
-46 -91 0
-91 -109 0
-77 -91 0
-46 -109 0
-46 -77 0
-77 -109 0
-47 -62 0
-47 -155 0
-44 -47 0
-62 -155 0
-44 -62 0
-44 -155 0
-118 -123 0
-122 -123 0
-43 -123 0
-118 -122 0
-43 -118 0
-43 -122 0
-42 -158 0
-42 -161 0
-42 -80 0
-158 -161 0
-80 -158 0
-80 -161 0
-150 -176 0
-150 -164 0
-132 -150 0
-164 -176 0
-132 -176 0
-132 -164 0
-41 -167 0
-126 -167 0
-154 -167 0
-41 -126 0
-41 -154 0
-126 -154 0
-40 -119 0
-39 -40 0
-40 -130 0
-39 -119 0
-119 -130 0
-39 -130 0
-42 -150 0
-42 -167 0
-40 -42 0
-150 -167 0
-40 -150 0
-40 -167 0
-158 -176 0
-41 -158 0
-119 -158 0
-41 -176 0
-119 -176 0
-41 -119 0
-161 -164 0
-126 -161 0
-39 -161 0
-126 -164 0
-39 -164 0
-39 -126 0
-80 -132 0
-80 -154 0
-80 -130 0
-132 -154 0
-130 -132 0
-130 -154 0
-38 -76 0
-38 -114 0
-37 -38 0
-38 -111 0
-76 -114 0
-37 -76 0
-76 -111 0
-37 -114 0
-111 -114 0
-37 -111 0
-68 -88 0
-68 -78 0
-68 -125 0
-68 -153 0
-78 -88 0
-88 -125 0
-88 -153 0
-78 -125 0
-78 -153 0
-125 -153 0
-35 -36 0
-36 -159 0
-36 -162 0
-36 -79 0
-35 -159 0
-35 -162 0
-35 -79 0
-159 -162 0
-79 -159 0
-79 -162 0
-34 -140 0
-33 -34 0
-34 -57 0
-34 -129 0
-33 -140 0
-57 -140 0
-129 -140 0
-33 -57 0
-33 -129 0
-57 -129 0
-32 -173 0
-32 -177 0
-32 -165 0
-32 -131 0
-173 -177 0
-165 -173 0
-131 -173 0
-165 -177 0
-131 -177 0
-131 -165 0
-38 -68 0
-36 -38 0
-34 -38 0
-32 -38 0
-36 -68 0
-34 -68 0
-32 -68 0
-34 -36 0
-32 -36 0
-32 -34 0
-76 -88 0
-35 -76 0
-76 -140 0
-76 -173 0
-35 -88 0
-88 -140 0
-88 -173 0
-35 -140 0
-35 -173 0
-140 -173 0
-78 -114 0
-114 -159 0
-33 -114 0
-114 -177 0
-78 -159 0
-33 -78 0
-78 -177 0
-33 -159 0
-159 -177 0
-33 -177 0
-37 -125 0
-37 -162 0
-37 -57 0
-37 -165 0
-125 -162 0
-57 -125 0
-125 -165 0
-57 -162 0
-162 -165 0
-57 -165 0
-111 -153 0
-79 -111 0
-111 -129 0
-111 -131 0
-79 -153 0
-129 -153 0
-131 -153 0
-79 -129 0
-79 -131 0
-129 -131 0
-31 -146 0
-30 -31 0
-28 -31 0
-31 -71 0
-30 -146 0
-28 -146 0
-71 -146 0
-28 -30 0
-30 -71 0
-28 -71 0
-90 -185 0
-90 -188 0
-56 -90 0
-90 -137 0
-185 -188 0
-56 -185 0
-137 -185 0
-56 -188 0
-137 -188 0
-56 -137 0
-26 -27 0
-27 -156 0
-27 -163 0
-27 -104 0
-26 -156 0
-26 -163 0
-26 -104 0
-156 -163 0
-104 -156 0
-104 -163 0
-106 -170 0
-25 -170 0
-108 -170 0
-24 -170 0
-25 -106 0
-106 -108 0
-24 -106 0
-25 -108 0
-24 -25 0
-24 -108 0
-64 -89 0
-64 -187 0
-64 -124 0
-64 -152 0
-89 -187 0
-89 -124 0
-89 -152 0
-124 -187 0
-152 -187 0
-124 -152 0
-31 -90 0
-27 -31 0
-31 -170 0
-31 -64 0
-27 -90 0
-90 -170 0
-64 -90 0
-27 -170 0
-27 -64 0
-64 -170 0
-146 -185 0
-26 -146 0
-106 -146 0
-89 -146 0
-26 -185 0
-106 -185 0
-89 -185 0
-26 -106 0
-26 -89 0
-89 -106 0
-30 -188 0
-30 -156 0
-25 -30 0
-30 -187 0
-156 -188 0
-25 -188 0
-187 -188 0
-25 -156 0
-156 -187 0
-25 -187 0
-28 -56 0
-28 -163 0
-28 -108 0
-28 -124 0
-56 -163 0
-56 -108 0
-56 -124 0
-108 -163 0
-124 -163 0
-108 -124 0
-71 -137 0
-71 -104 0
-24 -71 0
-71 -152 0
-104 -137 0
-24 -137 0
-137 -152 0
-24 -104 0
-104 -152 0
-24 -152 0
-23 -139 0
-22 -23 0
-23 -168 0
-23 -117 0
-23 -135 0
-22 -139 0
-139 -168 0
-117 -139 0
-135 -139 0
-22 -168 0
-22 -117 0
-22 -135 0
-117 -168 0
-135 -168 0
-117 -135 0
-21 -67 0
-67 -149 0
-67 -121 0
-67 -95 0
-67 -192 0
-21 -149 0
-21 -121 0
-21 -95 0
-21 -192 0
-121 -149 0
-95 -149 0
-149 -192 0
-95 -121 0
-121 -192 0
-95 -192 0
-19 -20 0
-20 -157 0
-18 -20 0
-20 -160 0
-20 -98 0
-19 -157 0
-18 -19 0
-19 -160 0
-19 -98 0
-18 -157 0
-157 -160 0
-98 -157 0
-18 -160 0
-18 -98 0
-98 -160 0
-17 -87 0
-16 -17 0
-17 -60 0
-15 -17 0
-17 -85 0
-16 -87 0
-60 -87 0
-15 -87 0
-85 -87 0
-16 -60 0
-15 -16 0
-16 -85 0
-15 -60 0
-60 -85 0
-15 -85 0
-14 -147 0
-14 -29 0
-14 -175 0
-14 -73 0
-14 -70 0
-29 -147 0
-147 -175 0
-73 -147 0
-70 -147 0
-29 -175 0
-29 -73 0
-29 -70 0
-73 -175 0
-70 -175 0
-70 -73 0
-66 -186 0
-66 -189 0
-13 -66 0
-66 -102 0
-66 -138 0
-186 -189 0
-13 -186 0
-102 -186 0
-138 -186 0
-13 -189 0
-102 -189 0
-138 -189 0
-13 -102 0
-13 -138 0
-102 -138 0
-23 -67 0
-20 -23 0
-17 -23 0
-14 -23 0
-23 -66 0
-20 -67 0
-17 -67 0
-14 -67 0
-66 -67 0
-17 -20 0
-14 -20 0
-20 -66 0
-14 -17 0
-17 -66 0
-14 -66 0
-21 -139 0
-19 -139 0
-87 -139 0
-139 -147 0
-139 -186 0
-19 -21 0
-21 -87 0
-21 -147 0
-21 -186 0
-19 -87 0
-19 -147 0
-19 -186 0
-87 -147 0
-87 -186 0
-147 -186 0
-22 -149 0
-22 -157 0
-16 -22 0
-22 -29 0
-22 -189 0
-149 -157 0
-16 -149 0
-29 -149 0
-149 -189 0
-16 -157 0
-29 -157 0
-157 -189 0
-16 -29 0
-16 -189 0
-29 -189 0
-121 -168 0
-18 -168 0
-60 -168 0
-168 -175 0
-13 -168 0
-18 -121 0
-60 -121 0
-121 -175 0
-13 -121 0
-18 -60 0
-18 -175 0
-13 -18 0
-60 -175 0
-13 -60 0
-13 -175 0
-95 -117 0
-117 -160 0
-15 -117 0
-73 -117 0
-102 -117 0
-95 -160 0
-15 -95 0
-73 -95 0
-95 -102 0
-15 -160 0
-73 -160 0
-102 -160 0
-15 -73 0
-15 -102 0
-73 -102 0
-135 -192 0
-98 -135 0
-85 -135 0
-70 -135 0
-135 -138 0
-98 -192 0
-85 -192 0
-70 -192 0
-138 -192 0
-85 -98 0
-70 -98 0
-98 -138 0
-70 -85 0
-85 -138 0
-70 -138 0
-11 -12 0
-10 -12 0
-12 -103 0
-10 -11 0
-11 -103 0
-10 -103 0
-59 -183 0
-183 -190 0
-183 -194 0
-59 -190 0
-59 -194 0
-190 -194 0
-144 -169 0
-116 -144 0
-136 -144 0
-116 -169 0
-136 -169 0
-116 -136 0
-120 -182 0
-96 -182 0
-182 -193 0
-96 -120 0
-120 -193 0
-96 -193 0
-12 -183 0
-12 -144 0
-12 -182 0
-144 -183 0
-182 -183 0
-144 -182 0
-11 -59 0
-11 -169 0
-11 -120 0
-59 -169 0
-59 -120 0
-120 -169 0
-10 -190 0
-10 -116 0
-10 -96 0
-116 -190 0
-96 -190 0
-96 -116 0
-103 -194 0
-103 -136 0
-103 -193 0
-136 -194 0
-193 -194 0
-136 -193 0
-9 -128 0
-105 -128 0
-8 -128 0
-107 -128 0
-97 -128 0
-9 -105 0
-8 -9 0
-9 -107 0
-9 -97 0
-8 -105 0
-105 -107 0
-97 -105 0
-8 -107 0
-8 -97 0
-97 -107 0
-6 -7 0
-7 -86 0
-7 -58 0
-5 -7 0
-7 -84 0
-6 -86 0
-6 -58 0
-5 -6 0
-6 -84 0
-58 -86 0
-5 -86 0
-84 -86 0
-5 -58 0
-58 -84 0
-5 -84 0
-99 -171 0
-99 -145 0
-99 -178 0
-50 -99 0
-99 -180 0
-145 -171 0
-171 -178 0
-50 -171 0
-171 -180 0
-145 -178 0
-50 -145 0
-145 -180 0
-50 -178 0
-178 -180 0
-50 -180 0
-65 -143 0
-4 -65 0
-65 -101 0
-65 -112 0
-65 -134 0
-4 -143 0
-101 -143 0
-112 -143 0
-134 -143 0
-4 -101 0
-4 -112 0
-4 -134 0
-101 -112 0
-101 -134 0
-112 -134 0
-3 -92 0
-3 -174 0
-3 -115 0
-3 -81 0
-2 -3 0
-92 -174 0
-92 -115 0
-81 -92 0
-2 -92 0
-115 -174 0
-81 -174 0
-2 -174 0
-81 -115 0
-2 -115 0
-2 -81 0
-75 -184 0
-63 -75 0
-75 -191 0
-1 -75 0
-75 -195 0
-63 -184 0
-184 -191 0
-1 -184 0
-184 -195 0
-63 -191 0
-1 -63 0
-63 -195 0
-1 -191 0
-191 -195 0
-1 -195 0
-7 -128 0
-99 -128 0
-65 -128 0
-3 -128 0
-75 -128 0
-7 -99 0
-7 -65 0
-3 -7 0
-7 -75 0
-65 -99 0
-3 -99 0
-75 -99 0
-3 -65 0
-65 -75 0
-3 -75 0
-6 -9 0
-9 -171 0
-9 -143 0
-9 -92 0
-9 -184 0
-6 -171 0
-6 -143 0
-6 -92 0
-6 -184 0
-143 -171 0
-92 -171 0
-171 -184 0
-92 -143 0
-143 -184 0
-92 -184 0
-86 -105 0
-105 -145 0
-4 -105 0
-105 -174 0
-63 -105 0
-86 -145 0
-4 -86 0
-86 -174 0
-63 -86 0
-4 -145 0
-145 -174 0
-63 -145 0
-4 -174 0
-4 -63 0
-63 -174 0
-8 -58 0
-8 -178 0
-8 -101 0
-8 -115 0
-8 -191 0
-58 -178 0
-58 -101 0
-58 -115 0
-58 -191 0
-101 -178 0
-115 -178 0
-178 -191 0
-101 -115 0
-101 -191 0
-115 -191 0
-5 -107 0
-50 -107 0
-107 -112 0
-81 -107 0
-1 -107 0
-5 -50 0
-5 -112 0
-5 -81 0
-1 -5 0
-50 -112 0
-50 -81 0
-1 -50 0
-81 -112 0
-1 -112 0
-1 -81 0
-84 -97 0
-97 -180 0
-97 -134 0
-2 -97 0
-97 -195 0
-84 -180 0
-84 -134 0
-2 -84 0
-84 -195 0
-134 -180 0
-2 -180 0
-180 -195 0
-2 -134 0
-134 -195 0
-2 -195 0
